c Maximum weighted clique instances generated from exactcolors.
c cutoff: 1148386.
c A clique of value > scalef (1148386) defines an improving stable sets for coloring.
p edge 40 0
n 1 1148385
n 2 1148385
n 3 1148385
n 4 1148385
n 5 1148385
n 6 1148385
n 7 1148385
n 8 1148385
n 9 1148385
n 10 1148385
n 11 1148385
n 12 1148385
n 13 1148385
n 14 1148385
n 15 1148385
n 16 1148385
n 17 1148385
n 18 1148385
n 19 1148385
n 20 1148385
n 21 1148385
n 22 1148385
n 23 1148385
n 24 1148385
n 25 1148385
n 26 1148385
n 27 1148385
n 28 1148385
n 29 1148385
n 30 1148385
n 31 1148385
n 32 1148385
n 33 1148385
n 34 1148385
n 35 1148385
n 36 1148385
n 37 1148385
n 38 1148385
n 39 1148385
n 40 1148385
